qbf_easy_train/easy_240_SAT.qdimacs
p cnf 21 46
a 9 3 13 0
e 1 2 4 5 6 7 8 10 11 12 14 15 16 17 18 19 20 21 0
-1 2 -3 0
1 -2 -3 0
-1 -2 3 0
1 2 3 0
4 -5 0
-4 -5 0
6 3 0
6 -5 0
-3 5 -6 0
7 -8 -9 0
-7 8 -9 0
7 8 9 0
-7 -8 9 0
-10 -6 0
-10 -9 0
6 9 10 0
13 -2 0
13 -12 0
2 12 -13 0
-14 -11 0
-14 -13 0
11 13 14 0
16 15 0
16 -2 0
-15 2 -16 0
17 13 0
17 -16 0
-13 16 -17 0
-18 -15 0
-18 16 0
15 -16 18 0
19 17 0
19 18 0
-17 -18 -19 0
-14 -19 -20 0
14 19 -20 0
-14 19 20 0
14 -19 20 0
21 10 0
21 20 0
-10 -20 -21 0
-14 -1 5 0
-14 -9 -12 7 0
-9 -6 15 10 -4 0
-16 -14 15 21 -6 2 0
21 0
