sat_easy_train/easy_240_SAT.dimacs
p cnf 119 394
-2 -1 0
-2 -1 0
1 2 0
3 4 -5 0
-3 -4 -5 0
3 -4 5 0
-3 4 5 0
7 -4 0
7 6 0
4 -6 -7 0
9 -7 0
9 -8 0
7 8 -9 0
-5 9 -10 0
5 -9 -10 0
-5 -9 10 0
5 9 10 0
-12 9 0
-12 3 0
-9 -3 12 0
-13 11 0
-13 12 0
-11 -12 13 0
-14 -10 0
-14 -13 0
10 13 14 0
-15 -16 -17 0
15 16 -17 0
-15 16 17 0
15 -16 17 0
-18 -14 0
-18 17 0
14 -17 18 0
20 19 0
20 -19 0
21 2 0
21 20 0
-2 -20 -21 0
22 18 0
22 -21 0
-18 21 -22 0
-23 2 0
-23 22 0
-2 -22 23 0
25 -13 0
25 24 0
13 -24 -25 0
15 -25 -26 0
-15 25 -26 0
15 25 26 0
-15 -25 26 0
17 4 -27 0
-17 -4 -27 0
17 -4 27 0
-17 4 27 0
27 8 -28 0
-27 -8 -28 0
27 -8 28 0
-27 8 28 0
29 -24 0
29 9 0
24 -9 -29 0
30 -29 0
30 -3 0
29 3 -30 0
31 9 0
31 -30 0
-9 30 -31 0
-32 -29 0
-32 31 0
29 -31 32 0
33 28 0
33 -32 0
-28 32 -33 0
34 1 0
34 15 0
-1 -15 -34 0
-15 34 -35 0
15 -34 -35 0
-15 -34 35 0
15 34 35 0
36 -11 0
36 -11 0
11 -36 0
3 -36 -37 0
-3 36 -37 0
3 36 37 0
-3 -36 37 0
-38 -35 0
-38 37 0
35 -37 38 0
19 -38 -39 0
-19 38 -39 0
19 38 39 0
-19 -38 39 0
-39 -30 -40 0
39 30 -40 0
-39 30 40 0
39 -30 40 0
-41 33 0
-41 -40 0
-33 40 41 0
43 -1 0
43 -42 0
1 42 -43 0
41 43 -44 0
-41 -43 -44 0
41 -43 44 0
-41 43 44 0
45 26 0
45 -44 0
-26 44 -45 0
-34 -6 -47 0
34 6 -47 0
-34 6 47 0
34 -6 47 0
46 -47 -48 0
-46 47 -48 0
46 47 48 0
-46 -47 48 0
49 15 0
49 -48 0
-15 48 -49 0
-50 15 0
-50 -13 0
-15 13 50 0
38 51 -52 0
-38 -51 -52 0
38 -51 52 0
-38 51 52 0
-53 32 0
-53 52 0
-32 -52 53 0
-50 53 -54 0
50 -53 -54 0
-50 -53 54 0
50 53 54 0
55 49 0
55 -54 0
-49 54 -55 0
56 -4 0
56 -35 0
4 35 -56 0
57 55 0
57 -56 0
-55 56 -57 0
36 51 -58 0
-36 -51 -58 0
36 -51 58 0
-36 51 58 0
-60 -58 0
-60 59 0
58 -59 60 0
57 -60 -61 0
-57 60 -61 0
57 60 61 0
-57 -60 61 0
-62 45 0
-62 -61 0
-45 61 62 0
-63 23 0
-63 -62 0
-23 62 63 0
7 1 -64 0
-7 -1 -64 0
7 -1 64 0
-7 1 64 0
34 64 -65 0
-34 -64 -65 0
34 -64 65 0
-34 64 65 0
-66 3 0
-66 5 0
-3 -5 66 0
67 24 0
67 66 0
-24 -66 -67 0
68 -8 0
68 29 0
8 -29 -68 0
68 51 -69 0
-68 -51 -69 0
68 -51 69 0
-68 51 69 0
-70 51 0
-70 69 0
-51 -69 70 0
71 -48 0
71 -38 0
48 38 -71 0
72 71 0
72 8 0
-71 -8 -72 0
73 70 0
73 72 0
-70 -72 -73 0
-11 -16 -74 0
11 16 -74 0
-11 16 74 0
11 -16 74 0
-74 11 -75 0
74 -11 -75 0
-74 -11 75 0
74 11 75 0
-75 -46 -76 0
75 46 -76 0
-75 46 76 0
75 -46 76 0
-77 -73 0
-77 76 0
73 -76 77 0
79 -78 0
79 -14 0
78 14 -79 0
-13 -27 -80 0
13 27 -80 0
-13 27 80 0
13 -27 80 0
-81 79 0
-81 80 0
-79 -80 81 0
-77 81 -82 0
77 -81 -82 0
-77 -81 82 0
77 81 82 0
83 -51 0
83 -74 0
51 74 -83 0
84 83 0
84 -37 0
-83 37 -84 0
-16 -17 -85 0
16 17 -85 0
-16 17 85 0
16 -17 85 0
64 85 -86 0
-64 -85 -86 0
64 -85 86 0
-64 85 86 0
87 -84 0
87 -86 0
84 86 -87 0
-88 82 0
-88 87 0
-82 -87 88 0
89 -10 0
89 -31 0
10 31 -89 0
-47 -89 -90 0
47 89 -90 0
-47 89 90 0
47 -89 90 0
-91 -88 0
-91 -90 0
88 90 91 0
-92 67 0
-92 -91 0
-67 91 92 0
93 30 0
93 6 0
-30 -6 -93 0
-93 -51 -94 0
93 51 -94 0
-93 51 94 0
93 -51 94 0
96 85 0
96 -95 0
-85 95 -96 0
-97 -96 0
-97 -39 0
96 39 97 0
98 97 0
98 15 0
-97 -15 -98 0
98 19 -99 0
-98 -19 -99 0
98 -19 99 0
-98 19 99 0
9 7 -100 0
-9 -7 -100 0
9 -7 100 0
-9 7 100 0
101 -100 0
101 -14 0
100 14 -101 0
102 -75 0
102 -101 0
75 101 -102 0
-103 99 0
-103 102 0
-99 -102 103 0
104 -94 0
104 -103 0
94 103 -104 0
-105 16 0
-105 -4 0
-16 4 105 0
-106 19 0
-106 10 0
-19 -10 106 0
-107 105 0
-107 106 0
-105 -106 107 0
-108 104 0
-108 -107 0
-104 107 108 0
-92 -108 -109 0
92 108 -109 0
-92 108 109 0
92 -108 109 0
-65 109 -110 0
65 -109 -110 0
-65 -109 110 0
65 109 110 0
-111 -63 0
-111 110 0
63 -110 111 0
112 13 0
112 -11 0
-13 11 -112 0
-113 36 0
-113 17 0
-36 -17 113 0
-114 -112 0
-114 113 0
112 -113 114 0
115 -38 0
115 -13 0
38 13 -115 0
116 -101 0
116 -89 0
101 89 -116 0
117 115 0
117 116 0
-115 -116 -117 0
118 114 0
118 117 0
-114 -117 -118 0
111 -118 -119 0
-111 118 -119 0
111 118 119 0
-111 -118 119 0
35 -60 -18 0
-71 94 3 0
-108 -32 -67 88 0
-89 19 -75 -16 -17 45 0
-93 74 -50 -1 0
17 -94 -34 10 0
-90 24 70 56 0
59 -74 14 -31 0
9 84 0
-24 111 49 0
22 -14 109 -68 79 57 0
-71 -103 -13 0
27 -67 85 -31 0
-40 -84 0
53 -23 42 6 0
-110 -79 -37 -83 0
15 31 -76 0
110 -67 -40 -2 -39 0
-73 -72 -100 6 -67 0
38 14 -85 -66 0
-6 26 -89 -53 0
6 51 -38 30 0
63 64 91 -11 83 0
94 -96 54 -93 0
-105 38 0
10 -82 0
-32 -78 25 -112 -116 -34 0
75 82 -2 -47 109 0
9 -79 -115 5 91 -47 0
-57 -59 -94 89 0
13 79 -24 0
86 -40 0
-59 50 29 -10 0
95 -7 42 100 -32 51 0
30 116 -96 -44 58 0
-104 -98 14 -84 -71 -93 0
-112 40 65 97 -71 34 0
30 70 0
-3 -50 -96 62 -104 53 0
44 95 -67 23 -31 -108 0
118 -98 -109 0
-62 18 30 -91 0
118 28 0
-97 -19 92 33 -90 0
-113 -27 -43 14 -45 -55 0
-71 -116 0
65 81 -107 0
82 102 81 118 4 0
3 86 -13 -37 -49 9 0
22 -30 -69 0
87 -80 0
119 0
